(set-info :smt-lib-version 2.6)
(set-logic QF_LRA)
(set-info :source |
Specification and verification of a 8N1 decoder.
Geoffrey Brown, Indiana University <geobrown@cs.indiana.edu>
Lee Pike, Galois Connections, Inc. <leepike@galois.com> 

Translated into CVC format by Leonardo de Moura.

This benchmark was automatically translated into SMT-LIB format from
CVC format using CVC Lite



|)
(set-info :category "industrial")
(set-info :status unsat)
(declare-fun x_0 () Real)
(declare-fun x_1 () Real)
(declare-fun x_2 () Real)
(declare-fun x_3 () Real)
(declare-fun x_4 () Bool)
(declare-fun x_5 () Real)
(declare-fun x_6 () Real)
(declare-fun x_7 () Real)
(declare-fun x_8 () Real)
(declare-fun x_9 () Real)
(declare-fun x_10 () Bool)
(declare-fun x_11 () Real)
(declare-fun x_12 () Bool)
(declare-fun x_13 () Real)
(declare-fun x_14 () Bool)
(declare-fun x_15 () Real)
(declare-fun x_16 () Bool)
(declare-fun x_17 () Real)
(declare-fun x_18 () Bool)
(declare-fun x_19 () Real)
(declare-fun x_20 () Real)
(declare-fun x_21 () Real)
(declare-fun x_22 () Real)
(declare-fun x_23 () Real)
(declare-fun x_24 () Real)
(declare-fun x_25 () Real)
(declare-fun x_26 () Real)
(declare-fun x_27 () Real)
(declare-fun x_28 () Real)
(declare-fun x_29 () Real)
(declare-fun x_30 () Real)
(declare-fun x_31 () Real)
(declare-fun x_32 () Real)
(declare-fun x_33 () Real)
(declare-fun x_34 () Real)
(declare-fun x_35 () Real)
(declare-fun x_36 () Real)
(declare-fun x_37 () Real)
(declare-fun x_38 () Real)
(declare-fun x_39 () Real)
(declare-fun x_40 () Real)
(declare-fun x_41 () Real)
(declare-fun x_42 () Real)
(declare-fun x_43 () Real)
(declare-fun x_44 () Real)
(declare-fun x_45 () Real)
(declare-fun x_46 () Real)
(declare-fun x_47 () Real)
(declare-fun x_48 () Real)
(declare-fun x_49 () Real)
(declare-fun x_50 () Real)
(declare-fun x_51 () Real)
(declare-fun x_52 () Real)
(declare-fun x_53 () Real)
(declare-fun x_54 () Real)
(declare-fun x_55 () Real)
(declare-fun x_56 () Real)
(declare-fun x_57 () Real)
(declare-fun x_58 () Real)
(declare-fun x_59 () Real)
(declare-fun x_60 () Real)
(declare-fun x_61 () Real)
(declare-fun x_62 () Real)
(declare-fun x_63 () Real)
(declare-fun x_64 () Real)
(declare-fun x_65 () Real)
(declare-fun x_66 () Real)
(declare-fun x_67 () Real)
(declare-fun x_68 () Real)
(declare-fun x_69 () Real)
(declare-fun x_70 () Real)
(declare-fun x_71 () Real)
(declare-fun x_72 () Real)
(declare-fun x_73 () Real)
(declare-fun x_74 () Real)
(declare-fun x_75 () Real)
(declare-fun x_76 () Real)
(declare-fun x_77 () Real)
(declare-fun x_78 () Real)
(declare-fun x_79 () Real)
(declare-fun x_80 () Real)
(declare-fun x_81 () Real)
(declare-fun x_82 () Real)
(declare-fun x_83 () Real)
(declare-fun x_84 () Real)
(declare-fun x_85 () Real)
(declare-fun x_86 () Real)
(declare-fun x_87 () Real)
(declare-fun x_88 () Real)
(declare-fun x_89 () Real)
(declare-fun x_90 () Real)
(declare-fun x_91 () Real)
(declare-fun x_92 () Real)
(declare-fun x_93 () Real)
(declare-fun x_94 () Real)
(declare-fun x_95 () Real)
(declare-fun x_96 () Real)
(assert (let ((?v_15 (not x_16))) (let ((?v_17 (and ?v_15 (< x_17 8))) (?v_56 (not x_14))) (let ((?v_58 (and ?v_56 (< x_15 8))) (?v_94 (not x_12))) (let ((?v_96 (and ?v_94 (< x_13 8))) (?v_132 (not x_10))) (let ((?v_134 (and ?v_132 (< x_11 8))) (?v_170 (not x_4))) (let ((?v_173 (and ?v_170 (< x_8 8))) (?v_158 (= x_1 10)) (?v_163 (= x_20 1)) (?v_165 (= x_10 x_4)) (?v_166 (= x_21 x_5)) (?v_167 (= x_22 x_23)) (?v_169 (= x_24 x_7)) (?v_174 (= x_8 9)) (?v_175 (= x_22 1)) (?v_161 (= x_7 1))) (let ((?v_176 (not ?v_161)) (?v_177 (not (= x_7 0))) (?v_178 (= x_7 3)) (?v_179 (= x_7 2)) (?v_168 (= x_11 x_8)) (?v_159 (= x_26 x_27)) (?v_181 (= x_20 x_0)) (?v_160 (= x_28 x_1)) (?v_182 (= x_29 x_2)) (?v_184 (< x_1 9)) (?v_183 (= x_9 2)) (?v_187 (= x_8 x_1)) (?v_195 (not (= x_27 x_23))) (?v_190 (= x_30 1)) (?v_122 (= x_28 10)) (?v_124 (= x_37 1)) (?v_126 (= x_12 x_10)) (?v_127 (= x_38 x_21)) (?v_131 (= x_25 x_21)) (?v_128 (= x_39 x_22)) (?v_130 (= x_40 x_24)) (?v_135 (= x_11 9)) (?v_136 (= x_39 1)) (?v_137 (not (= x_24 1))) (?v_138 (not (= x_24 0))) (?v_139 (= x_24 3)) (?v_140 (= x_24 2)) (?v_129 (= x_13 x_11)) (?v_141 (= x_41 x_25)) (?v_120 (= x_42 x_26)) (?v_142 (= x_37 x_20)) (?v_121 (= x_43 x_28)) (?v_143 (= x_44 x_29)) (?v_144 (< x_28 9)) (?v_146 (= x_30 2)) (?v_145 (= x_25 x_29)) (?v_150 (= x_21 x_25))) (let ((?v_152 (not ?v_150)) (?v_148 (= x_11 x_28)) (?v_156 (not (= x_26 x_22))) (?v_151 (= x_45 1)) (?v_84 (= x_43 10)) (?v_86 (= x_52 1)) (?v_88 (= x_14 x_12)) (?v_89 (= x_53 x_38)) (?v_93 (= x_41 x_38)) (?v_90 (= x_54 x_39)) (?v_92 (= x_55 x_40)) (?v_97 (= x_13 9)) (?v_98 (= x_54 1)) (?v_99 (not (= x_40 1))) (?v_100 (not (= x_40 0))) (?v_101 (= x_40 3)) (?v_102 (= x_40 2)) (?v_91 (= x_15 x_13)) (?v_103 (= x_56 x_41)) (?v_82 (= x_57 x_42)) (?v_104 (= x_52 x_37)) (?v_83 (= x_58 x_43)) (?v_105 (= x_59 x_44)) (?v_106 (< x_43 9)) (?v_108 (= x_45 2)) (?v_107 (= x_41 x_44)) (?v_112 (= x_38 x_41))) (let ((?v_114 (not ?v_112)) (?v_110 (= x_13 x_43)) (?v_118 (not (= x_42 x_39))) (?v_113 (= x_60 1)) (?v_42 (= x_58 10)) (?v_44 (= x_67 1)) (?v_50 (= x_16 x_14)) (?v_51 (= x_68 x_53)) (?v_55 (= x_56 x_53)) (?v_52 (= x_69 x_54)) (?v_54 (= x_70 x_55)) (?v_59 (= x_15 9)) (?v_60 (= x_69 1)) (?v_61 (not (= x_55 1))) (?v_62 (not (= x_55 0))) (?v_63 (= x_55 3)) (?v_64 (= x_55 2)) (?v_53 (= x_17 x_15)) (?v_65 (= x_71 x_56)) (?v_40 (= x_72 x_57)) (?v_66 (= x_67 x_52)) (?v_41 (= x_73 x_58)) (?v_67 (= x_74 x_59)) (?v_68 (< x_58 9)) (?v_70 (= x_60 2)) (?v_69 (= x_56 x_59)) (?v_74 (= x_53 x_56))) (let ((?v_76 (not ?v_74)) (?v_72 (= x_15 x_58)) (?v_80 (not (= x_57 x_54))) (?v_75 (= x_75 1)) (?v_2 (= x_73 10)) (?v_4 (= x_82 1)) (?v_8 (= x_18 x_16)) (?v_9 (= x_83 x_68)) (?v_13 (= x_71 x_68)) (?v_10 (= x_84 x_69)) (?v_12 (= x_85 x_70)) (?v_18 (= x_17 9)) (?v_19 (= x_84 1)) (?v_20 (not (= x_70 1))) (?v_21 (not (= x_70 0))) (?v_22 (= x_70 3)) (?v_23 (= x_70 2)) (?v_11 (= x_19 x_17)) (?v_24 (= x_86 x_71)) (?v_0 (= x_87 x_72)) (?v_25 (= x_82 x_67)) (?v_1 (= x_88 x_73)) (?v_26 (= x_89 x_74)) (?v_27 (< x_73 9)) (?v_29 (= x_75 2)) (?v_28 (= x_71 x_74)) (?v_33 (= x_68 x_71))) (let ((?v_34 (not ?v_33)) (?v_31 (= x_17 x_73)) (?v_38 (not (= x_72 x_69))) (?v_35 (= x_90 1)) (?v_172 (not (< x_22 0))) (?v_133 (not (< x_39 0))) (?v_95 (not (< x_54 0))) (?v_57 (not (< x_69 0))) (?v_16 (not (< x_84 0))) (?v_3 (= x_82 0)) (?v_5 (= x_88 1)) (?v_77 (= x_75 0)) (?v_43 (= x_67 0)) (?v_45 (= x_73 1)) (?v_115 (= x_60 0)) (?v_85 (= x_52 0)) (?v_87 (= x_58 1)) (?v_153 (= x_45 0)) (?v_123 (= x_37 0)) (?v_125 (= x_43 1)) (?v_192 (= x_30 0)) (?v_162 (= x_20 0)) (?v_164 (= x_28 1)) (?v_197 (= x_9 1)) (?v_36 (not ?v_27)) (?v_37 (and ?v_27 (not ?v_28))) (?v_32 (and ?v_27 ?v_28))) (let ((?v_30 (and ?v_32 ?v_34))) (let ((?v_39 (and ?v_30 ?v_31)) (?v_78 (not ?v_68)) (?v_79 (and ?v_68 (not ?v_69))) (?v_73 (and ?v_68 ?v_69))) (let ((?v_71 (and ?v_73 ?v_76))) (let ((?v_81 (and ?v_71 ?v_72)) (?v_116 (not ?v_106)) (?v_117 (and ?v_106 (not ?v_107))) (?v_111 (and ?v_106 ?v_107))) (let ((?v_109 (and ?v_111 ?v_114))) (let ((?v_119 (and ?v_109 ?v_110)) (?v_154 (not ?v_144)) (?v_155 (and ?v_144 (not ?v_145))) (?v_149 (and ?v_144 ?v_145))) (let ((?v_147 (and ?v_149 ?v_152))) (let ((?v_157 (and ?v_147 ?v_148)) (?v_185 (= 0 x_2)) (?v_180 (= x_25 0)) (?v_171 (= 0 x_5)) (?v_193 (not ?v_184))) (let ((?v_194 (and ?v_184 (not ?v_185))) (?v_188 (and ?v_184 ?v_185)) (?v_189 (= x_5 0))) (let ((?v_191 (not ?v_189))) (let ((?v_186 (and ?v_188 ?v_191))) (let ((?v_196 (and ?v_186 ?v_187)) (?v_7 (+ x_3 1)) (?v_14 (- 16 x_6)) (?v_6 (- 1 x_3))) (let ((?v_46 (* ?v_6 23)) (?v_47 (* ?v_7 23)) (?v_48 (* ?v_6 16)) (?v_49 (* ?v_7 16))) (and (and (and (and (and (and (and (and (and (and (and (and (and (and (and (and (and (and (and (and (and (and (and (and (and (and (and (and (and (and (and (and (and (and (and (and (and (and (and (and (and (and (and (and (and (and (and (and (and (and (and (and (and (and (and (and (and (and (and (and (and (and (and (and (and (and (and (and (and (and (and (and (and (and (and (and (and (and (and (and (and (and (and (and (and (and (and (and (and (and (and (and (and (and (and (and (and (and (and (and (and (and (and (and (and (and (and (and (<= x_85 3) (>= x_85 0)) (<= x_82 3)) (>= x_82 0)) (<= x_70 3)) (>= x_70 0)) (<= x_67 3)) (>= x_67 0)) (<= x_55 3)) (>= x_55 0)) (<= x_52 3)) (>= x_52 0)) (<= x_40 3)) (>= x_40 0)) (<= x_37 3)) (>= x_37 0)) (<= x_24 3)) (>= x_24 0)) (<= x_20 3)) (>= x_20 0)) (<= x_7 3)) (>= x_7 0)) (<= x_0 3)) (>= x_0 0)) (not (< x_1 1))) (<= x_1 10)) (>= x_3 0)) (< x_3 (/ 3 151))) (>= x_6 0)) (< x_6 4)) (not (< x_8 0))) (<= x_8 9)) (not (< x_9 0))) (<= x_9 2)) (not (< x_11 0))) (<= x_11 9)) (not (< x_13 0))) (<= x_13 9)) (not (< x_15 0))) (<= x_15 9)) (not (< x_17 0))) (<= x_17 9)) (not (< x_19 0))) (<= x_19 9)) ?v_172) (<= x_22 1)) (not (< x_23 0))) (<= x_23 1)) (not (< x_26 0))) (<= x_26 1)) (not (< x_27 0))) (<= x_27 1)) (not (< x_28 1))) (<= x_28 10)) (not (< x_30 0))) (<= x_30 2)) ?v_133) (<= x_39 1)) (not (< x_42 0))) (<= x_42 1)) (not (< x_43 1))) (<= x_43 10)) (not (< x_45 0))) (<= x_45 2)) ?v_95) (<= x_54 1)) (not (< x_57 0))) (<= x_57 1)) (not (< x_58 1))) (<= x_58 10)) (not (< x_60 0))) (<= x_60 2)) ?v_57) (<= x_69 1)) (not (< x_72 0))) (<= x_72 1)) (not (< x_73 1))) (<= x_73 10)) (not (< x_75 0))) (<= x_75 2)) ?v_16) (<= x_84 1)) (not (< x_87 0))) (<= x_87 1)) (not (< x_88 1))) (<= x_88 10)) (not (< x_90 0))) (<= x_90 2)) (= x_0 1)) ?v_158) (>= x_2 0)) (< x_2 ?v_7)) ?v_170) (>= x_5 0)) (<= x_5 ?v_14)) ?v_161) ?v_174) ?v_183) (or (or (and (and (and (and (and (and (and (and (and (and (= x_91 0) (or (and (and (and (= x_92 0) (< x_71 x_74)) (<= x_74 x_68)) (= x_86 x_74)) (and (and (and (= x_92 1) (< x_71 x_68)) (<= x_68 x_74)) (= x_86 x_68)))) ?v_0) ?v_25) ?v_1) ?v_26) ?v_8) ?v_9) ?v_10) ?v_11) ?v_12) (and (and (and (and (and (and (and (and (and (= x_91 1) (or (or (and (and (and (and (and (= x_93 0) ?v_2) ?v_21) ?v_4) ?v_0) ?v_1) (and (and (and (and (and (= x_93 1) ?v_2) ?v_20) ?v_3) ?v_5) ?v_0)) (and (and (and (and (= x_93 2) (not ?v_2)) (ite (or ?v_23 ?v_22) (or ?v_3 ?v_4) (= x_82 x_70))) (= x_88 (+ x_73 1))) (= x_87 (ite ?v_4 1 0))))) ?v_28) (ite (= x_88 10) (and (<= (+ x_71 ?v_6) x_89) (<= x_89 (+ (+ x_71 x_3) 1))) (ite ?v_5 (and (<= (+ x_71 ?v_46) x_89) (<= x_89 (+ x_71 ?v_47))) (and (<= (+ x_71 ?v_48) x_89) (<= x_89 (+ x_71 ?v_49)))))) ?v_24) ?v_8) ?v_9) ?v_10) ?v_11) ?v_12)) (and (and (and (and (and (and (and (and (= x_91 2) (or (and (and (and (and (= x_94 0) ?v_13) ?v_15) (= x_83 (+ x_71 x_6))) x_18) (and (and (and (and (= x_94 1) ?v_13) x_16) (= x_83 (+ x_71 ?v_14))) (not x_18)))) (or (and (and (and (= x_95 0) ?v_17) (or (= x_84 0) ?v_19)) ?v_16) (and (and (= x_95 1) (not ?v_17)) ?v_10))) (or (or (or (and (and (and (and (= x_96 0) ?v_15) ?v_18) (= x_19 9)) ?v_12) (and (and (and (and (= x_96 1) ?v_15) ?v_18) (= x_85 2)) (= x_19 0))) (and (and (and (and (= x_96 2) ?v_15) (< x_17 9)) (= x_85 (ite (or ?v_19 (= x_17 8)) (ite ?v_20 3 x_70) (ite ?v_21 2 x_70)))) (= x_19 (+ x_17 1)))) (and (and (and (= x_96 3) x_16) (= x_85 (ite ?v_22 1 (ite ?v_23 0 x_70)))) ?v_11))) ?v_24) ?v_0) ?v_25) ?v_1) ?v_26))) (or (or (or (or (and (and ?v_29 (or (or ?v_36 ?v_37) ?v_39)) (= x_90 2)) (and (and ?v_29 (or (and ?v_30 (not ?v_31)) (and ?v_32 ?v_33))) ?v_35)) (and (and (and (and (and ?v_29 ?v_27) ?v_28) ?v_34) ?v_31) (= x_90 0))) (and ?v_75 ?v_35)) (and (and ?v_77 (or (or (and ?v_36 ?v_38) (and ?v_37 ?v_38)) (and ?v_39 ?v_38))) ?v_35))) (or (or (and (and (and (and (and (and (and (and (and (and (= x_76 0) (or (and (and (and (= x_77 0) (< x_56 x_59)) (<= x_59 x_53)) (= x_71 x_59)) (and (and (and (= x_77 1) (< x_56 x_53)) (<= x_53 x_59)) (= x_71 x_53)))) ?v_40) ?v_66) ?v_41) ?v_67) ?v_50) ?v_51) ?v_52) ?v_53) ?v_54) (and (and (and (and (and (and (and (and (and (= x_76 1) (or (or (and (and (and (and (and (= x_78 0) ?v_42) ?v_62) ?v_44) ?v_40) ?v_41) (and (and (and (and (and (= x_78 1) ?v_42) ?v_61) ?v_43) ?v_45) ?v_40)) (and (and (and (and (= x_78 2) (not ?v_42)) (ite (or ?v_64 ?v_63) (or ?v_43 ?v_44) (= x_67 x_55))) (= x_73 (+ x_58 1))) (= x_72 (ite ?v_44 1 0))))) ?v_69) (ite ?v_2 (and (<= (+ x_56 ?v_6) x_74) (<= x_74 (+ (+ x_56 x_3) 1))) (ite ?v_45 (and (<= (+ x_56 ?v_46) x_74) (<= x_74 (+ x_56 ?v_47))) (and (<= (+ x_56 ?v_48) x_74) (<= x_74 (+ x_56 ?v_49)))))) ?v_65) ?v_50) ?v_51) ?v_52) ?v_53) ?v_54)) (and (and (and (and (and (and (and (and (= x_76 2) (or (and (and (and (and (= x_79 0) ?v_55) ?v_56) (= x_68 (+ x_56 x_6))) x_16) (and (and (and (and (= x_79 1) ?v_55) x_14) (= x_68 (+ x_56 ?v_14))) ?v_15))) (or (and (and (and (= x_80 0) ?v_58) (or (= x_69 0) ?v_60)) ?v_57) (and (and (= x_80 1) (not ?v_58)) ?v_52))) (or (or (or (and (and (and (and (= x_81 0) ?v_56) ?v_59) ?v_18) ?v_54) (and (and (and (and (= x_81 1) ?v_56) ?v_59) ?v_23) (= x_17 0))) (and (and (and (and (= x_81 2) ?v_56) (< x_15 9)) (= x_70 (ite (or ?v_60 (= x_15 8)) (ite ?v_61 3 x_55) (ite ?v_62 2 x_55)))) (= x_17 (+ x_15 1)))) (and (and (and (= x_81 3) x_14) (= x_70 (ite ?v_63 1 (ite ?v_64 0 x_55)))) ?v_53))) ?v_65) ?v_40) ?v_66) ?v_41) ?v_67))) (or (or (or (or (and (and ?v_70 (or (or ?v_78 ?v_79) ?v_81)) ?v_29) (and (and ?v_70 (or (and ?v_71 (not ?v_72)) (and ?v_73 ?v_74))) ?v_75)) (and (and (and (and (and ?v_70 ?v_68) ?v_69) ?v_76) ?v_72) ?v_77)) (and ?v_113 ?v_75)) (and (and ?v_115 (or (or (and ?v_78 ?v_80) (and ?v_79 ?v_80)) (and ?v_81 ?v_80))) ?v_75))) (or (or (and (and (and (and (and (and (and (and (and (and (= x_61 0) (or (and (and (and (= x_62 0) (< x_41 x_44)) (<= x_44 x_38)) (= x_56 x_44)) (and (and (and (= x_62 1) (< x_41 x_38)) (<= x_38 x_44)) (= x_56 x_38)))) ?v_82) ?v_104) ?v_83) ?v_105) ?v_88) ?v_89) ?v_90) ?v_91) ?v_92) (and (and (and (and (and (and (and (and (and (= x_61 1) (or (or (and (and (and (and (and (= x_63 0) ?v_84) ?v_100) ?v_86) ?v_82) ?v_83) (and (and (and (and (and (= x_63 1) ?v_84) ?v_99) ?v_85) ?v_87) ?v_82)) (and (and (and (and (= x_63 2) (not ?v_84)) (ite (or ?v_102 ?v_101) (or ?v_85 ?v_86) (= x_52 x_40))) (= x_58 (+ x_43 1))) (= x_57 (ite ?v_86 1 0))))) ?v_107) (ite ?v_42 (and (<= (+ x_41 ?v_6) x_59) (<= x_59 (+ (+ x_41 x_3) 1))) (ite ?v_87 (and (<= (+ x_41 ?v_46) x_59) (<= x_59 (+ x_41 ?v_47))) (and (<= (+ x_41 ?v_48) x_59) (<= x_59 (+ x_41 ?v_49)))))) ?v_103) ?v_88) ?v_89) ?v_90) ?v_91) ?v_92)) (and (and (and (and (and (and (and (and (= x_61 2) (or (and (and (and (and (= x_64 0) ?v_93) ?v_94) (= x_53 (+ x_41 x_6))) x_14) (and (and (and (and (= x_64 1) ?v_93) x_12) (= x_53 (+ x_41 ?v_14))) ?v_56))) (or (and (and (and (= x_65 0) ?v_96) (or (= x_54 0) ?v_98)) ?v_95) (and (and (= x_65 1) (not ?v_96)) ?v_90))) (or (or (or (and (and (and (and (= x_66 0) ?v_94) ?v_97) ?v_59) ?v_92) (and (and (and (and (= x_66 1) ?v_94) ?v_97) ?v_64) (= x_15 0))) (and (and (and (and (= x_66 2) ?v_94) (< x_13 9)) (= x_55 (ite (or ?v_98 (= x_13 8)) (ite ?v_99 3 x_40) (ite ?v_100 2 x_40)))) (= x_15 (+ x_13 1)))) (and (and (and (= x_66 3) x_12) (= x_55 (ite ?v_101 1 (ite ?v_102 0 x_40)))) ?v_91))) ?v_103) ?v_82) ?v_104) ?v_83) ?v_105))) (or (or (or (or (and (and ?v_108 (or (or ?v_116 ?v_117) ?v_119)) ?v_70) (and (and ?v_108 (or (and ?v_109 (not ?v_110)) (and ?v_111 ?v_112))) ?v_113)) (and (and (and (and (and ?v_108 ?v_106) ?v_107) ?v_114) ?v_110) ?v_115)) (and ?v_151 ?v_113)) (and (and ?v_153 (or (or (and ?v_116 ?v_118) (and ?v_117 ?v_118)) (and ?v_119 ?v_118))) ?v_113))) (or (or (and (and (and (and (and (and (and (and (and (and (= x_46 0) (or (and (and (and (= x_47 0) (< x_25 x_29)) (<= x_29 x_21)) (= x_41 x_29)) (and (and (and (= x_47 1) (< x_25 x_21)) (<= x_21 x_29)) (= x_41 x_21)))) ?v_120) ?v_142) ?v_121) ?v_143) ?v_126) ?v_127) ?v_128) ?v_129) ?v_130) (and (and (and (and (and (and (and (and (and (= x_46 1) (or (or (and (and (and (and (and (= x_48 0) ?v_122) ?v_138) ?v_124) ?v_120) ?v_121) (and (and (and (and (and (= x_48 1) ?v_122) ?v_137) ?v_123) ?v_125) ?v_120)) (and (and (and (and (= x_48 2) (not ?v_122)) (ite (or ?v_140 ?v_139) (or ?v_123 ?v_124) (= x_37 x_24))) (= x_43 (+ x_28 1))) (= x_42 (ite ?v_124 1 0))))) ?v_145) (ite ?v_84 (and (<= (+ x_25 ?v_6) x_44) (<= x_44 (+ (+ x_25 x_3) 1))) (ite ?v_125 (and (<= (+ x_25 ?v_46) x_44) (<= x_44 (+ x_25 ?v_47))) (and (<= (+ x_25 ?v_48) x_44) (<= x_44 (+ x_25 ?v_49)))))) ?v_141) ?v_126) ?v_127) ?v_128) ?v_129) ?v_130)) (and (and (and (and (and (and (and (and (= x_46 2) (or (and (and (and (and (= x_49 0) ?v_131) ?v_132) (= x_38 (+ x_25 x_6))) x_12) (and (and (and (and (= x_49 1) ?v_131) x_10) (= x_38 (+ x_25 ?v_14))) ?v_94))) (or (and (and (and (= x_50 0) ?v_134) (or (= x_39 0) ?v_136)) ?v_133) (and (and (= x_50 1) (not ?v_134)) ?v_128))) (or (or (or (and (and (and (and (= x_51 0) ?v_132) ?v_135) ?v_97) ?v_130) (and (and (and (and (= x_51 1) ?v_132) ?v_135) ?v_102) (= x_13 0))) (and (and (and (and (= x_51 2) ?v_132) (< x_11 9)) (= x_40 (ite (or ?v_136 (= x_11 8)) (ite ?v_137 3 x_24) (ite ?v_138 2 x_24)))) (= x_13 (+ x_11 1)))) (and (and (and (= x_51 3) x_10) (= x_40 (ite ?v_139 1 (ite ?v_140 0 x_24)))) ?v_129))) ?v_141) ?v_120) ?v_142) ?v_121) ?v_143))) (or (or (or (or (and (and ?v_146 (or (or ?v_154 ?v_155) ?v_157)) ?v_108) (and (and ?v_146 (or (and ?v_147 (not ?v_148)) (and ?v_149 ?v_150))) ?v_151)) (and (and (and (and (and ?v_146 ?v_144) ?v_145) ?v_152) ?v_148) ?v_153)) (and ?v_190 ?v_151)) (and (and ?v_192 (or (or (and ?v_154 ?v_156) (and ?v_155 ?v_156)) (and ?v_157 ?v_156))) ?v_151))) (or (or (and (and (and (and (and (and (and (and (and (and (= x_31 0) (or (and (and (and (= x_32 0) (> x_2 0)) (<= x_2 x_5)) (= x_25 x_2)) (and (and (and (= x_32 1) (> x_5 0)) (<= x_5 x_2)) (= x_25 x_5)))) ?v_159) ?v_181) ?v_160) ?v_182) ?v_165) ?v_166) ?v_167) ?v_168) ?v_169) (and (and (and (and (and (and (and (and (and (= x_31 1) (or (or (and (and (and (and (and (= x_33 0) ?v_158) ?v_177) ?v_163) ?v_159) ?v_160) (and (and (and (and (and (= x_33 1) ?v_158) ?v_176) ?v_162) ?v_164) ?v_159)) (and (and (and (and (= x_33 2) (not ?v_158)) (ite (or ?v_179 ?v_178) (or ?v_162 ?v_163) (= x_20 x_7))) (= x_28 (+ x_1 1))) (= x_26 (ite ?v_163 1 0))))) ?v_185) (ite ?v_122 (and (<= (+ 0 ?v_6) x_29) (<= x_29 (+ (+ 0 x_3) 1))) (ite ?v_164 (and (<= (+ 0 ?v_46) x_29) (<= x_29 (+ 0 ?v_47))) (and (<= (+ 0 ?v_48) x_29) (<= x_29 (+ 0 ?v_49)))))) ?v_180) ?v_165) ?v_166) ?v_167) ?v_168) ?v_169)) (and (and (and (and (and (and (and (and (= x_31 2) (or (and (and (and (and (= x_34 0) ?v_171) ?v_170) (= x_21 (+ 0 x_6))) x_10) (and (and (and (and (= x_34 1) ?v_171) x_4) (= x_21 (+ 0 ?v_14))) ?v_132))) (or (and (and (and (= x_35 0) ?v_173) (or (= x_22 0) ?v_175)) ?v_172) (and (and (= x_35 1) (not ?v_173)) ?v_167))) (or (or (or (and (and (and (and (= x_36 0) ?v_170) ?v_174) ?v_135) ?v_169) (and (and (and (and (= x_36 1) ?v_170) ?v_174) ?v_140) (= x_11 0))) (and (and (and (and (= x_36 2) ?v_170) (< x_8 9)) (= x_24 (ite (or ?v_175 (= x_8 8)) (ite ?v_176 3 x_7) (ite ?v_177 2 x_7)))) (= x_11 (+ x_8 1)))) (and (and (and (= x_36 3) x_4) (= x_24 (ite ?v_178 1 (ite ?v_179 0 x_7)))) ?v_168))) ?v_180) ?v_159) ?v_181) ?v_160) ?v_182))) (or (or (or (or (and (and ?v_183 (or (or ?v_193 ?v_194) ?v_196)) ?v_146) (and (and ?v_183 (or (and ?v_186 (not ?v_187)) (and ?v_188 ?v_189))) ?v_190)) (and (and (and (and (and ?v_183 ?v_184) ?v_185) ?v_191) ?v_187) ?v_192)) (and ?v_197 ?v_190)) (and (and (= x_9 0) (or (or (and ?v_193 ?v_195) (and ?v_194 ?v_195)) (and ?v_196 ?v_195))) ?v_190))) (or (or (or (or (or ?v_35 ?v_75) ?v_113) ?v_151) ?v_190) ?v_197)))))))))))))))))))))))))))
(check-sat)
(exit)
